1111100 AB
370 430 520 600 670 750 820 900 990 1070 1150 1160 1240 1310
1111100 AB red
510 680 830 980
1111100 BA
335 398 466 476 556 636 706 786 856 936 1026 1106 1196 1272
0000011 AB
370 430 510 580 660 730 770 810 850 930 1010 1080 1150 1160 1230 1295
0000011 AB red
500 650 890 1000
0000011 BA
335 398 464 474 544 614 694 764 804 844 884 964 1044 1114 1184 1264
